sat
(
(define-fun sym205 () String "Y")
(define-fun sym547 () String "P")
(define-fun sym813 () String "G")
(define-fun sym3836 () String "G")
(define-fun sym1910 () String "P")
(define-fun sym2128 () String "G")
(define-fun sym2986 () String "H")
(define-fun sym2337 () String "H")
(define-fun sym1479 () String "G")
(define-fun sym3624 () String "P")
(define-fun sym3414 () String "G")
(define-fun sym1695 () String "H")
(define-fun sym3202 () String "P")
(define-fun sym4047 () String "L")
(define-fun sym2552 () String "P")
(define-fun sym2770 () String "G")
(define-fun sym4352 () String "A")
(define-fun sym1040 () String "H")
(define-fun sym4253 () String "P")
(define-fun sym1261 () String "P")
(define-fun sym161 () String "A")
)
